========================================================== 
File name: C:\DEGR\assets\definitions\MSRCPSP_Gen\100_40_64_10_C.def
Creation date: Wed May 03 10:39:43 CEST 2023
Website: http://imopse.ii.pwr.edu.pl/ 
Reference: 
Myszkowski P. B., Skowronski M. E., Olech L., Oslizlo K., 
Hybrid Ant Colony Optimization in solving Multi-Skill Resource-Constrained Project Scheduling Problem, 
Soft Computing, DOI: DOI 10.1007/s00500-014-1455-x 
========================================================== 
General characteristics: 
Tasks: 100
Resources: 40
Precedence relations: 63
Number of skill types: 10
========================================================== 
ResourceID 	 Salary 	 Skills 
1	 	 	69.1	 	 Q3: 0 	  Q9: 1 	  Q4: 1 	  Q1: 3 	  Q7: 3 	  Q5: 0 	  Q0: 2 	 
2	 	 	87.6	 	 Q1: 0 	  Q3: 3 	  Q5: 3 	  Q4: 2 	 
3	 	 	38.5	 	 Q6: 2 	  Q0: 1 	  Q1: 3 	  Q8: 1 	  Q7: 1 	 
4	 	 	24.6	 	 Q3: 3 	  Q2: 3 	  Q1: 3 	  Q8: 3 	  Q6: 1 	  Q4: 2 	 
5	 	 	33.4	 	 Q1: 3 	  Q3: 0 	  Q4: 2 	  Q0: 2 	  Q6: 2 	  Q2: 2 	 
6	 	 	87.9	 	 Q7: 2 	  Q8: 3 	  Q3: 3 	  Q4: 1 	  Q2: 3 	  Q1: 1 	  Q5: 3 	  Q0: 3 	  Q6: 3 	 
7	 	 	63.7	 	 Q7: 3 	  Q2: 0 	  Q6: 0 	  Q0: 0 	  Q5: 1 	  Q4: 3 	  Q3: 0 	  Q9: 0 	 
8	 	 	65.3	 	 Q7: 1 	  Q0: 0 	  Q1: 2 	 
9	 	 	45.8	 	 Q7: 1 	  Q9: 1 	  Q6: 0 	  Q1: 1 	  Q4: 0 	  Q3: 3 	  Q2: 1 	  Q8: 0 	  Q5: 3 	 
10	 	 	76.2	 	 Q4: 3 	  Q0: 1 	  Q3: 1 	  Q5: 1 	  Q8: 1 	  Q6: 1 	 
11	 	 	76.2	 	 Q5: 0 	 
12	 	 	36.5	 	 Q8: 2 	  Q0: 2 	  Q9: 3 	 
13	 	 	62.2	 	 Q0: 3 	  Q1: 1 	 
14	 	 	78.4	 	 Q5: 2 	  Q4: 3 	 
15	 	 	32.3	 	 Q1: 1 	  Q3: 1 	  Q8: 3 	  Q4: 1 	  Q2: 1 	  Q6: 0 	  Q7: 2 	 
16	 	 	42.6	 	 Q3: 0 	  Q7: 0 	  Q1: 1 	  Q6: 3 	  Q5: 3 	 
17	 	 	96.3	 	 Q5: 0 	  Q7: 0 	  Q3: 1 	 
18	 	 	40.6	 	 Q3: 2 	  Q5: 3 	  Q2: 0 	  Q9: 1 	  Q0: 1 	 
19	 	 	99.1	 	 Q6: 0 	  Q7: 1 	  Q4: 1 	  Q1: 0 	 
20	 	 	99.2	 	 Q7: 2 	 
21	 	 	39.6	 	 Q4: 0 	  Q8: 0 	 
22	 	 	57.1	 	 Q5: 2 	  Q8: 3 	  Q7: 0 	  Q2: 3 	  Q1: 0 	  Q9: 1 	  Q0: 2 	  Q6: 2 	  Q4: 2 	 
23	 	 	66.0	 	 Q9: 2 	  Q0: 0 	  Q1: 1 	  Q4: 0 	 
24	 	 	98.6	 	 Q4: 0 	  Q5: 2 	  Q9: 0 	  Q2: 2 	  Q1: 3 	  Q6: 0 	  Q7: 0 	  Q0: 2 	 
25	 	 	56.2	 	 Q7: 2 	  Q1: 2 	  Q9: 0 	  Q8: 0 	  Q2: 1 	  Q0: 1 	  Q6: 2 	 
26	 	 	47.3	 	 Q9: 0 	  Q8: 3 	  Q5: 2 	  Q3: 0 	  Q2: 0 	  Q6: 3 	  Q0: 0 	  Q1: 3 	  Q7: 2 	 
27	 	 	73.5	 	 Q0: 3 	 
28	 	 	74.9	 	 Q7: 0 	  Q3: 2 	  Q0: 1 	  Q8: 3 	  Q2: 3 	  Q1: 0 	  Q6: 0 	  Q9: 0 	 
29	 	 	91.1	 	 Q9: 0 	  Q3: 1 	  Q8: 3 	 
30	 	 	29.7	 	 Q8: 1 	  Q2: 1 	  Q4: 0 	  Q9: 2 	  Q7: 0 	  Q1: 0 	  Q0: 1 	  Q5: 2 	 
31	 	 	14.1	 	 Q9: 2 	  Q7: 1 	  Q1: 1 	  Q4: 3 	  Q2: 2 	 
32	 	 	55.4	 	 Q3: 0 	  Q7: 3 	 
33	 	 	97.5	 	 Q9: 1 	  Q4: 2 	  Q0: 3 	  Q6: 0 	  Q7: 1 	  Q8: 3 	  Q3: 0 	  Q5: 0 	 
34	 	 	94.2	 	 Q9: 3 	  Q4: 2 	  Q7: 1 	  Q5: 3 	 
35	 	 	25.1	 	 Q3: 3 	  Q7: 1 	  Q8: 2 	  Q4: 3 	  Q6: 1 	  Q9: 1 	  Q5: 3 	 
36	 	 	18.4	 	 Q2: 1 	  Q5: 3 	  Q3: 1 	  Q7: 2 	  Q6: 2 	  Q9: 2 	  Q0: 0 	  Q8: 1 	  Q4: 3 	 
37	 	 	54.6	 	 Q1: 3 	  Q9: 0 	  Q2: 3 	 
38	 	 	79.9	 	 Q7: 2 	  Q4: 1 	  Q8: 3 	 
39	 	 	17.7	 	 Q5: 3 	  Q7: 2 	  Q8: 0 	  Q4: 1 	 
40	 	 	26.5	 	 Q0: 2 	  Q6: 1 	  Q8: 1 	  Q1: 2 	 
========================================================== 
TaskID 	 Duration 	 Skill 	 Predecessor IDs 
1	24	Q0:	0
2	13	Q8:	0
3	19	Q8:	3
4	12	Q7:	1
5	9	Q2:	3
6	17	Q3:	1	2
7	12	Q9:	0	3
8	29	Q2:	1
9	20	Q4:	2
10	24	Q3:	2
11	19	Q4:	1
12	25	Q4:	0
13	10	Q6:	0	4	5
14	37	Q5:	3
15	23	Q3:	1
16	36	Q5:	2
17	36	Q4:	0	3	8
18	10	Q1:	0
19	16	Q0:	0
20	27	Q5:	3	5
21	21	Q4:	2
22	25	Q5:	2	6
23	34	Q4:	3
24	17	Q6:	1
25	24	Q5:	0
26	33	Q9:	3
27	38	Q0:	2
28	24	Q0:	2
29	15	Q2:	0	26
30	26	Q0:	1
31	27	Q1:	2	17	6
32	11	Q9:	2
33	19	Q4:	2
34	10	Q6:	0
35	14	Q3:	1
36	34	Q1:	2
37	21	Q0:	0
38	9	Q6:	0
39	21	Q7:	0
40	21	Q0:	1	4
41	9	Q2:	0
42	10	Q2:	2
43	32	Q8:	0	27
44	30	Q3:	0
45	35	Q4:	0
46	37	Q4:	3
47	16	Q4:	2
48	35	Q5:	3
49	12	Q0:	1	47	25
50	24	Q0:	3
51	10	Q1:	3
52	28	Q3:	3	18	40
53	15	Q8:	0
54	22	Q4:	2
55	11	Q7:	1	52
56	29	Q7:	3	48	50
57	17	Q4:	3
58	28	Q4:	0
59	18	Q5:	3	42
60	38	Q1:	0	56	44	48
61	27	Q3:	3
62	26	Q0:	0
63	22	Q8:	0
64	30	Q2:	2	41
65	23	Q1:	3
66	38	Q8:	1	51
67	38	Q6:	3	1	21
68	34	Q6:	0	26	53
69	32	Q2:	2
70	10	Q3:	0	16
71	15	Q4:	0	3
72	25	Q7:	2
73	20	Q7:	3	24	15	46
74	34	Q4:	1
75	35	Q5:	3	73
76	22	Q3:	3	49
77	37	Q9:	0	4	14
78	20	Q1:	0	1
79	32	Q3:	2
80	11	Q5:	0	55
81	33	Q2:	1	32
82	32	Q0:	3	45	76	4
83	12	Q4:	2	15	75	70
84	21	Q8:	0
85	16	Q2:	3
86	40	Q6:	0	64
87	39	Q9:	0
88	17	Q7:	2	83	57
89	15	Q5:	2	9	81
90	28	Q9:	1
91	17	Q6:	3
92	13	Q0:	3	57
93	21	Q3:	2	63	64
94	9	Q2:	3	49	91
95	20	Q2:	3	86	56
96	14	Q4:	3
97	31	Q0:	0	93
98	17	Q1:	0
99	17	Q1:	1	15
100	15	Q4:	1	50
========================================================== 